90 19 
65 65 
27 27 
85 86 
56 2 
65 83 
16 71 
47 43 
22 76 
25 81 
68 93 
65 98 
74 64 
23 25 
56 18 
91 46 
37 9 
11 17 
36 49 
3 92 
3 20 
27 19 
91 26 
14 13 
54 40 
46 23 
33 11 
73 7 
27 97 
84 83 
15 28 
81 4 
37 45 
21 25 
94 76 
69 97 
96 48 
68 39 
75 82 
5 81 
22 51 
56 8 
63 30 
67 90 
79 52 
26 46 
80 7 
50 69 
52 72 
46 98 
